6
Lattice="3.3193777062 0.0 0.0 -1.6596888531 2.8746654183 0.0 0.0 0.0 40.0" Properties=species:S:1:pos:R:3:atom_types:I:1:layer_ids:I:1:forces:R:3 energy=-2382.358338356018 pbc="T T F"
Mo      -0.00000029      -0.00000001       8.37478919        0        0       0.00000129       0.00000146      -0.00000671
Se       1.65968860       0.95822183      10.03806927        1        0      -0.00000002      -0.00000083       0.00000707
Se       1.65968854       0.95822180       6.71136357        2        0      -0.00000037      -0.00000031       0.00001235
W        1.65968913       0.95822201      14.76276285        3        1      -0.00000277      -0.00000061       0.00000504
Se       0.00000028       1.91644389      16.42115793        4        1       0.00000170       0.00000078      -0.00000751
Se       0.00000021       1.91644390      13.10091506        5        1       0.00000019      -0.00000048      -0.00001046
