8
Lattice="5.44370237 0.0 0.0 0.0 5.44370237 0.0 0.0 0.0 5.44370237" Properties=species:S:1:pos:R:3:forces:R:3 spacegroup="F d -3 m" unit_cell=conventional occupancy="_JSON {\"0\": {\"Si\": 1}}" energy=-42.73471450805664 stress="-0.0030825091525912285 -1.075496935953879e-08 -9.969191694381152e-09 -1.075496935953879e-08 -0.0030825119465589523 -1.0178256459880686e-08 -9.969191694381152e-09 -1.0178256459880686e-08 -0.0030825233552604914" free_energy=-42.73471450805664 pbc="T T T"
Si       0.00000000       0.00000000       0.00000000      -0.00000022      -0.00000014      -0.00000003
Si       1.36092559       1.36092559       1.36092559      -0.00000030      -0.00000026      -0.00000042
Si       0.00000000       2.72185118       2.72185118      -0.00000067      -0.00000070      -0.00000082
Si       4.08277678       1.36092559       4.08277678       0.00000117       0.00000031       0.00000115
Si       1.36092559       4.08277678       4.08277678       0.00000025       0.00000108       0.00000131
Si       4.08277678       4.08277678       1.36092559       0.00000113       0.00000107       0.00000023
Si       2.72185118       0.00000000       2.72185118      -0.00000069      -0.00000065      -0.00000087
Si       2.72185118       2.72185118       0.00000000      -0.00000072      -0.00000072      -0.00000051
