3
Lattice="3.1840664647 0.0 0.0 -1.5920332323 2.7574824458 0.0 0.0 0.0 40.0" Properties=species:S:1:pos:R:3:forces:R:3 source=crystal.fmt energy=-21.71573257446289 stress="-4.5751505240332335e-05 -1.8076250218879153e-10 -4.186459165445022e-11 -1.8076250218879153e-10 -4.575172715703957e-05 4.89400533987272e-12 -4.186459165445022e-11 4.89400533987272e-12 -0.0001374670973746106" free_energy=-21.71573257446289 pbc="T T F"
Mo       0.00000000       0.00000000       9.06355632      -0.00000004      -0.00000017      -0.00000809
S        1.59203323       0.91916082      10.62711265       0.00000007       0.00000010       0.13463435
S        1.59203323       0.91916082       7.50000000      -0.00000003       0.00000007      -0.13462619
3
Lattice="3.1840664647 0.0 0.0 -1.5920332323 2.7574824458 0.0 0.0 0.0 40.0" Properties=species:S:1:pos:R:3:forces:R:3 source=crystal.fmt energy=-21.716060638427734 stress="-3.564434155123308e-05 -1.186014481069364e-10 1.9499235559550243e-10 -1.186014481069364e-10 -3.5644414310809225e-05 -1.4507155199350308e-10 1.9499235559550243e-10 -1.4507155199350308e-10 -0.00011262645421084017" free_energy=-21.716060638427734 pbc="T T F"
Mo      -0.00000000      -0.00000000       9.06355624      -0.00000009       0.00000018      -0.00000180
S        1.59203323       0.91916082      10.62845899      -0.00000010      -0.00000000       0.11022131
S        1.59203323       0.91916082       7.49865374       0.00000015      -0.00000015      -0.11021958
3
Lattice="3.1840664647 0.0 0.0 -1.5920332323 2.7574824458 0.0 0.0 0.0 40.0" Properties=species:S:1:pos:R:3:forces:R:3 source=crystal.fmt energy=-21.71649169921875 stress="-1.737400634738151e-05 3.376972659840938e-11 -5.6134246556593936e-11 3.376972659840938e-11 -1.737405727908481e-05 4.985606719132285e-11 -5.6134246556593936e-11 4.985606719132285e-11 -6.756112998118624e-05" free_energy=-21.71649169921875 pbc="T T F"
Mo      -0.00000000      -0.00000000       9.06355615       0.00000009       0.00000003       0.00001376
S        1.59203323       0.91916082      10.63090755      -0.00000001      -0.00000001       0.06602150
S        1.59203323       0.91916082       7.49620528      -0.00000005      -0.00000003      -0.06603529
3
Lattice="3.1840664647 0.0 0.0 -1.5920332323 2.7574824458 0.0 0.0 0.0 40.0" Properties=species:S:1:pos:R:3:forces:R:3 source=crystal.fmt energy=-21.71672821044922 stress="5.605568276223494e-06 -1.1700068691666843e-10 6.379100719877684e-11 -1.1700068691666843e-10 5.605812930298271e-06 1.2692893611165879e-11 6.379100719877684e-11 1.2692893611165879e-11 -1.0577370630926453e-05" free_energy=-21.71672821044922 pbc="T T F"
Mo      -0.00000000      -0.00000000       9.06355625       0.00000024      -0.00000003      -0.00000771
S        1.59203323       0.91916082      10.63401629      -0.00000016       0.00000001       0.01032377
S        1.59203323       0.91916082       7.49309643      -0.00000007       0.00000001      -0.01031616
3
Lattice="3.1840664647 0.0 0.0 -1.5920332323 2.7574824458 0.0 0.0 0.0 40.0" Properties=species:S:1:pos:R:3:forces:R:3 source=crystal.fmt energy=-21.716611862182617 stress="2.9108716262271628e-05 9.60473714450849e-11 1.930553807094615e-11 9.60473714450849e-11 2.9109123715898022e-05 -2.0401885736376357e-10 1.930553807094615e-11 -2.0401885736376357e-10 4.8036912630777806e-05" free_energy=-21.716611862182617 pbc="T T F"
Mo       0.00000001      -0.00000000       9.06355604       0.00000022      -0.00000027       0.00000442
S        1.59203322       0.91916082      10.63722838      -0.00000010       0.00000022      -0.04678607
S        1.59203323       0.91916082       7.48988455      -0.00000009       0.00000020       0.04678163
3
Lattice="3.1840664647 0.0 0.0 -1.5920332323 2.7574824458 0.0 0.0 0.0 40.0" Properties=species:S:1:pos:R:3:forces:R:3 source=crystal.fmt energy=-21.716623306274414 stress="2.8258991733309813e-05 -1.679402970855559e-11 -3.379432497729873e-11 -1.679402970855559e-11 2.825936462613754e-05 1.8252989397726793e-11 -3.379432497729873e-11 1.8252989397726793e-11 4.590952448779717e-05" free_energy=-21.716623306274414 pbc="T T F"
Mo       0.00000001      -0.00000000       9.06355605       0.00000006       0.00000003       0.00001464
S        1.59203322       0.91916082      10.63711142       0.00000002      -0.00000013      -0.04472229
S        1.59203323       0.91916082       7.49000150      -0.00000006       0.00000019       0.04470769
3
Lattice="3.1840664647 0.0 0.0 -1.5920332323 2.7574824458 0.0 0.0 0.0 40.0" Properties=species:S:1:pos:R:3:forces:R:3 source=crystal.fmt energy=-21.716642379760742 stress="2.6593683287501335e-05 -9.976530018773744e-11 -4.827081442893011e-11 -9.976530018773744e-11 2.6593956135911867e-05 -1.8240636778799058e-10 -4.827081442893011e-11 -1.8240636778799058e-10 4.17467272200156e-05" free_energy=-21.716642379760742 pbc="T T F"
Mo       0.00000001      -0.00000000       9.06355610       0.00000009       0.00000018       0.00001040
S        1.59203322       0.91916082      10.63688264      -0.00000001       0.00000006      -0.04067060
S        1.59203323       0.91916082       7.49023022      -0.00000004      -0.00000021       0.04066015
3
Lattice="3.1840664647 0.0 0.0 -1.5920332323 2.7574824458 0.0 0.0 0.0 40.0" Properties=species:S:1:pos:R:3:forces:R:3 source=crystal.fmt energy=-21.71666717529297 stress="2.418342228338588e-05 -2.5972970996157585e-10 2.6138527106644993e-11 -2.5972970996157585e-10 2.41832276515197e-05 -1.3460517422902996e-10 2.6138527106644993e-11 -1.3460517422902996e-10 3.572018613340333e-05" free_energy=-21.71666717529297 pbc="T T F"
Mo       0.00000001      -0.00000000       9.06355617       0.00000005      -0.00000017       0.00000554
S        1.59203322       0.91916082      10.63655219      -0.00000005       0.00000014      -0.03480428
S        1.59203323       0.91916082       7.49056060      -0.00000002       0.00000005       0.03479879
3
Lattice="3.1840664647 0.0 0.0 -1.5920332323 2.7574824458 0.0 0.0 0.0 40.0" Properties=species:S:1:pos:R:3:forces:R:3 source=crystal.fmt energy=-21.716693878173828 stress="2.1138162992428988e-05 1.828685987359524e-11 -1.3315637481525755e-10 1.828685987359524e-11 2.1138417650945485e-05 7.45993128381528e-11 -1.3315637481525755e-10 7.45993128381528e-11 2.811983176798094e-05" free_energy=-21.716693878173828 pbc="T T F"
Mo       0.00000001      -0.00000000       9.06355626       0.00000009       0.00000011      -0.00000311
S        1.59203322       0.91916083      10.63613474       0.00000006      -0.00000010      -0.02740133
S        1.59203323       0.91916082       7.49097797      -0.00000015       0.00000000       0.02740446
3
Lattice="3.1840664647 0.0 0.0 -1.5920332323 2.7574824458 0.0 0.0 0.0 40.0" Properties=species:S:1:pos:R:3:forces:R:3 source=crystal.fmt energy=-21.71671485900879 stress="1.7584319721208885e-05 5.961787487296366e-12 5.198937808037485e-11 5.961787487296366e-12 1.7584179659024812e-05 1.7045262423742713e-10 5.198937808037485e-11 1.7045262423742713e-10 1.9250692275818437e-05" free_energy=-21.71671485900879 pbc="T T F"
Mo       0.00000001      -0.00000000       9.06355633       0.00000006      -0.00000015      -0.00000851
S        1.59203322       0.91916083      10.63564878      -0.00000006       0.00000000      -0.01876045
S        1.59203323       0.91916082       7.49146385      -0.00000001       0.00000007       0.01876890
3
Lattice="3.1840664647 0.0 0.0 -1.5920332323 2.7574824458 0.0 0.0 0.0 40.0" Properties=species:S:1:pos:R:3:forces:R:3 source=crystal.fmt energy=-21.716732025146484 stress="1.3679825315193739e-05 -4.3127997700898035e-11 -3.7200856978225616e-11 -4.3127997700898035e-11 1.3680114534508903e-05 1.0368985531306052e-10 -3.7200856978225616e-11 1.0368985531306052e-10 9.51770653045969e-06" free_energy=-21.716732025146484 pbc="T T F"
Mo       0.00000001      -0.00000000       9.06355635       0.00000022      -0.00000015      -0.00000819
S        1.59203322       0.91916083      10.63511594      -0.00000010       0.00000003      -0.00927602
S        1.59203323       0.91916082       7.49199668      -0.00000010       0.00000007       0.00928417
3
Lattice="3.1840664647 0.0 0.0 -1.5920332323 2.7574824458 0.0 0.0 0.0 40.0" Properties=species:S:1:pos:R:3:forces:R:3 source=crystal.fmt energy=-21.71673583984375 stress="9.601362762623467e-06 -4.4078907190936434e-11 -6.5189034725854356e-12 -4.4078907190936434e-11 9.601370948075783e-06 -1.7440923705258626e-10 -6.5189034725854356e-12 -1.7440923705258626e-10 -6.380776085279649e-07" free_energy=-21.71673583984375 pbc="T T F"
Mo       0.00000002      -0.00000001       9.06355630       0.00000025       0.00000015      -0.00000783
S        1.59203322       0.91916083      10.63455993      -0.00000020       0.00000006       0.00062620
S        1.59203322       0.91916082       7.49255274      -0.00000000      -0.00000019      -0.00061834
3
Lattice="3.1840664647 0.0 0.0 -1.5920332323 2.7574824458 0.0 0.0 0.0 40.0" Properties=species:S:1:pos:R:3:forces:R:3 source=crystal.fmt energy=-21.71673583984375 stress="9.60747911449289e-06 -6.730861701331747e-11 2.6919562065574887e-11 -6.730861701331747e-11 9.607110769138671e-06 1.166149121711868e-10 2.6919562065574887e-11 1.166149121711868e-10 -6.248707791201014e-07" free_energy=-21.71673583984375 pbc="T T F"
Mo       0.00000002      -0.00000001       9.06355629       0.00000016       0.00000001      -0.00000289
S        1.59203322       0.91916083      10.63456032      -0.00000010      -0.00000011       0.00061089
S        1.59203322       0.91916082       7.49255235      -0.00000007       0.00000009      -0.00060799
3
Lattice="3.1840664647 0.0 0.0 -1.5920332323 2.7574824458 0.0 0.0 0.0 40.0" Properties=species:S:1:pos:R:3:forces:R:3 source=crystal.fmt energy=-21.71673583984375 stress="9.611608220438939e-06 1.1760297596863367e-11 -1.3120610153904977e-10 1.1760297596863367e-11 9.61196292337263e-06 6.002377067604314e-11 -1.3120610153904977e-10 6.002377067604314e-11 -6.150607418931031e-07" free_energy=-21.71673583984375 pbc="T T F"
Mo       0.00000002      -0.00000001       9.06355628      -0.00000000      -0.00000032       0.00000023
S        1.59203322       0.91916083      10.63456110       0.00000006       0.00000018       0.00059973
S        1.59203322       0.91916082       7.49255158      -0.00000002       0.00000008      -0.00059995
3
Lattice="3.1840664647 0.0 0.0 -1.5920332323 2.7574824458 0.0 0.0 0.0 40.0" Properties=species:S:1:pos:R:3:forces:R:3 source=crystal.fmt energy=-21.71673583984375 stress="9.620576747693121e-06 -2.2323208559438257e-10 -5.157245290543511e-12 -2.2323208559438257e-10 9.620020136935636e-06 -1.3578171920158866e-10 -5.157245290543511e-12 -1.3578171920158866e-10 -5.917634098295821e-07" free_energy=-21.71673583984375 pbc="T T F"
Mo       0.00000002      -0.00000001       9.06355628      -0.00000005       0.00000018      -0.00000271
S        1.59203322       0.91916083      10.63456224       0.00000001       0.00000002       0.00057845
S        1.59203322       0.91916082       7.49255044       0.00000004      -0.00000014      -0.00057571
3
Lattice="3.1840664647 0.0 0.0 -1.5920332323 2.7574824458 0.0 0.0 0.0 40.0" Properties=species:S:1:pos:R:3:forces:R:3 source=crystal.fmt energy=-21.71673583984375 stress="9.627913641452324e-06 -8.306355603338034e-11 3.566592160497706e-11 -8.306355603338034e-11 9.628190127841663e-06 -6.843889344132492e-11 3.566592160497706e-11 -6.843889344132492e-11 -5.698458380720695e-07" free_energy=-21.71673583984375 pbc="T T F"
Mo       0.00000002      -0.00000001       9.06355627       0.00000005      -0.00000018      -0.00000758
S        1.59203322       0.91916083      10.63456375      -0.00000009       0.00000005       0.00055981
S        1.59203322       0.91916082       7.49254894       0.00000003       0.00000024      -0.00055232
3
Lattice="3.1840664647 0.0 0.0 -1.5920332323 2.7574824458 0.0 0.0 0.0 40.0" Properties=species:S:1:pos:R:3:forces:R:3 source=crystal.fmt energy=-21.71673583984375 stress="9.643036719353404e-06 4.979765905188671e-11 1.0112057718947298e-10 4.979765905188671e-11 9.644028978073038e-06 -1.3668853549031468e-10 1.0112057718947298e-10 -1.3668853549031468e-10 -5.364225899029407e-07" free_energy=-21.71673583984375 pbc="T T F"
Mo       0.00000002      -0.00000001       9.06355626       0.00000018      -0.00000035      -0.00000517
S        1.59203322       0.91916083      10.63456561      -0.00000020       0.00000029       0.00052553
S        1.59203322       0.91916082       7.49254709       0.00000002       0.00000012      -0.00052026
3
Lattice="3.1840664647 0.0 0.0 -1.5920332323 2.7574824458 0.0 0.0 0.0 40.0" Properties=species:S:1:pos:R:3:forces:R:3 source=crystal.fmt energy=-21.71673583984375 stress="9.663498531153891e-06 4.474218218142312e-11 2.7738004601540744e-11 4.474218218142312e-11 9.663435776019469e-06 -2.1157209664779408e-11 2.7738004601540744e-11 -2.1157209664779408e-11 -4.87801401050092e-07" free_energy=-21.71673583984375 pbc="T T F"
Mo       0.00000002      -0.00000001       9.06355624      -0.00000003      -0.00000010      -0.00000016
S        1.59203322       0.91916083      10.63456780      -0.00000006       0.00000007       0.00047568
S        1.59203322       0.91916082       7.49254492       0.00000010       0.00000003      -0.00047545
3
Lattice="3.1840664647 0.0 0.0 -1.5920332323 2.7574824458 0.0 0.0 0.0 40.0" Properties=species:S:1:pos:R:3:forces:R:3 source=crystal.fmt energy=-21.71673583984375 stress="9.679689355834853e-06 1.669801380499436e-10 4.463214867134191e-11 1.669801380499436e-10 9.679654795036186e-06 -1.6792364374018653e-11 4.463214867134191e-11 -1.6792364374018653e-11 -4.44363479346066e-07" free_energy=-21.71673583984375 pbc="T T F"
Mo       0.00000002      -0.00000001       9.06355623       0.00000004      -0.00000000      -0.00000833
S        1.59203322       0.91916083      10.63457028      -0.00000005      -0.00000003       0.00043742
S        1.59203322       0.91916082       7.49254245       0.00000000       0.00000008      -0.00042902
3
Lattice="3.1840664647 0.0 0.0 -1.5920332323 2.7574824458 0.0 0.0 0.0 40.0" Properties=species:S:1:pos:R:3:forces:R:3 source=crystal.fmt energy=-21.71673583984375 stress="9.699233487481251e-06 -1.025562482159792e-10 4.822563182127482e-11 -1.025562482159792e-10 9.699131624074653e-06 2.0467624123332584e-11 4.822563182127482e-11 2.0467624123332584e-11 -3.9676388041698374e-07" free_energy=-21.71673583984375 pbc="T T F"
Mo       0.00000002      -0.00000001       9.06355620       0.00000006      -0.00000031      -0.00000817
S        1.59203322       0.91916083      10.63457335      -0.00000006       0.00000013       0.00039103
S        1.59203322       0.91916082       7.49253942      -0.00000002       0.00000020      -0.00038284
3
Lattice="3.1840664647 0.0 0.0 -1.5920332323 2.7574824458 0.0 0.0 0.0 40.0" Properties=species:S:1:pos:R:3:forces:R:3 source=crystal.fmt energy=-21.71673583984375 stress="9.728279110277072e-06 -2.0733727235100474e-11 -2.4715250679374634e-11 -2.0733727235100474e-11 9.728521035867743e-06 -1.491938378395119e-10 -2.4715250679374634e-11 -1.491938378395119e-10 -3.2341898759113974e-07" free_energy=-21.71673583984375 pbc="T T F"
Mo       0.00000002      -0.00000001       9.06355616       0.00000022      -0.00000016       0.00000755
S        1.59203322       0.91916083      10.63457708      -0.00000015       0.00000027       0.00031153
S        1.59203322       0.91916082       7.49253573      -0.00000003      -0.00000011      -0.00031902
3
Lattice="3.1840664647 0.0 0.0 -1.5920332323 2.7574824458 0.0 0.0 0.0 40.0" Properties=species:S:1:pos:R:3:forces:R:3 source=crystal.fmt energy=-21.71673583984375 stress="9.762350600794889e-06 -8.001716650385404e-11 -4.536465647575483e-11 -8.001716650385404e-11 9.762752597453073e-06 -9.435605768937094e-11 -4.536465647575483e-11 -9.435605768937094e-11 -2.416502695723466e-07" free_energy=-21.71673583984375 pbc="T T F"
Mo       0.00000002      -0.00000001       9.06355613       0.00000018      -0.00000022       0.00001081
S        1.59203322       0.91916083      10.63458153      -0.00000007       0.00000022       0.00023032
S        1.59203322       0.91916082       7.49253131      -0.00000008       0.00000001      -0.00024114
3
Lattice="3.1840664647 0.0 0.0 -1.5920332323 2.7574824458 0.0 0.0 0.0 40.0" Properties=species:S:1:pos:R:3:forces:R:3 source=crystal.fmt energy=-21.71673583984375 stress="9.795127880352084e-06 -2.2098958080141173e-11 -3.2364354252134575e-11 -2.2098958080141173e-11 9.795632649911568e-06 1.2728951226392837e-10 -3.2364354252134575e-11 1.2728951226392837e-10 -1.5230216376949102e-07" free_energy=-21.71673583984375 pbc="T T F"
Mo       0.00000002      -0.00000001       9.06355615       0.00000019      -0.00000019       0.00000513
S        1.59203322       0.91916083      10.63458671      -0.00000004       0.00000004       0.00014581
S        1.59203322       0.91916082       7.49252611      -0.00000017       0.00000011      -0.00015087
3
Lattice="3.1840664647 0.0 0.0 -1.5920332323 2.7574824458 0.0 0.0 0.0 40.0" Properties=species:S:1:pos:R:3:forces:R:3 source=crystal.fmt energy=-21.71673583984375 stress="9.845649401540868e-06 -1.1782586017972108e-10 2.8097810536586998e-12 -1.1782586017972108e-10 9.84549660643097e-06 2.5920848800708995e-10 2.8097810536586998e-12 2.5920848800708995e-10 -3.5216274341109965e-08" free_energy=-21.71673583984375 pbc="T T F"
Mo       0.00000002      -0.00000002       9.06355619       0.00000009       0.00000014       0.00001538
S        1.59203321       0.91916083      10.63459264       0.00000000      -0.00000020       0.00002673
S        1.59203322       0.91916083       7.49252014      -0.00000013      -0.00000009      -0.00004215
3
Lattice="3.1840664647 0.0 0.0 -1.5920332323 2.7574824458 0.0 0.0 0.0 40.0" Properties=species:S:1:pos:R:3:forces:R:3 source=crystal.fmt energy=-21.71673583984375 stress="9.89177351584658e-06 -1.468986599029165e-10 1.5819544285644582e-10 -1.468986599029165e-10 9.892232810670976e-06 2.4644319918110114e-10 1.5819544285644582e-10 2.4644319918110114e-10 8.221977765288102e-08" free_energy=-21.71673583984375 pbc="T T F"
Mo       0.00000003      -0.00000002       9.06355652       0.00000028       0.00000022      -0.00001071
S        1.59203321       0.91916083      10.63459904      -0.00000027      -0.00000023      -0.00007480
S        1.59203322       0.91916082       7.49251340      -0.00000005      -0.00000010       0.00008549
3
Lattice="3.1840664647 0.0 0.0 -1.5920332323 2.7574824458 0.0 0.0 0.0 40.0" Properties=species:S:1:pos:R:3:forces:R:3 source=crystal.fmt energy=-21.71673583984375 stress="9.890190995065495e-06 -2.4455190650307657e-10 2.930595349726062e-11 -2.4455190650307657e-10 9.890286492009182e-06 1.7832699206188352e-10 2.930595349726062e-11 1.7832699206188352e-10 7.643931354550659e-08" free_energy=-21.71673583984375 pbc="T T F"
Mo       0.00000003      -0.00000002       9.06355651      -0.00000011       0.00000003      -0.00000549
S        1.59203321       0.91916083      10.63459901       0.00000002       0.00000001      -0.00007195
S        1.59203322       0.91916082       7.49251345       0.00000010      -0.00000023       0.00007751
3
Lattice="3.1840664647 0.0 0.0 -1.5920332323 2.7574824458 0.0 0.0 0.0 40.0" Properties=species:S:1:pos:R:3:forces:R:3 source=crystal.fmt energy=-21.71673583984375 stress="9.889964530884754e-06 -2.2224665163772528e-10 -4.546809109773342e-11 -2.2224665163772528e-10 9.890083674690686e-06 7.657487838264032e-11 -4.546809109773342e-11 7.657487838264032e-11 7.642386634643117e-08" free_energy=-21.71673583984375 pbc="T T F"
Mo       0.00000003      -0.00000002       9.06355651       0.00000000       0.00000011      -0.00000567
S        1.59203321       0.91916083      10.63459894       0.00000002      -0.00000007      -0.00007175
S        1.59203322       0.91916082       7.49251353       0.00000000      -0.00000007       0.00007745
3
Lattice="3.1840664647 0.0 0.0 -1.5920332323 2.7574824458 0.0 0.0 0.0 40.0" Properties=species:S:1:pos:R:3:forces:R:3 source=crystal.fmt energy=-21.71673583984375 stress="9.889653483696748e-06 -1.3404222176660596e-10 1.5531571861959748e-10 -1.3404222176660596e-10 9.88982901617419e-06 -7.637885462985494e-11 1.5531571861959748e-10 -7.637885462985494e-11 7.659779299729053e-08" free_energy=-21.71673583984375 pbc="T T F"
Mo       0.00000003      -0.00000002       9.06355650       0.00000002      -0.00000008      -0.00000514
S        1.59203321       0.91916083      10.63459883      -0.00000013       0.00000013      -0.00007225
S        1.59203322       0.91916082       7.49251364       0.00000006      -0.00000010       0.00007744
3
Lattice="3.1840664647 0.0 0.0 -1.5920332323 2.7574824458 0.0 0.0 0.0 40.0" Properties=species:S:1:pos:R:3:forces:R:3 source=crystal.fmt energy=-21.71673583984375 stress="9.889787179417908e-06 -3.9093980830351427e-10 -4.845416602672348e-12 -3.9093980830351427e-10 9.88959345704643e-06 1.0732451732886616e-10 -4.845416602672348e-12 1.0732451732886616e-10 7.634880461182547e-08" free_energy=-21.71673583984375 pbc="T T F"
Mo       0.00000003      -0.00000002       9.06355648      -0.00000009       0.00000007      -0.00000563
S        1.59203321       0.91916083      10.63459869       0.00000005      -0.00000009      -0.00007175
S        1.59203322       0.91916082       7.49251380       0.00000003      -0.00000007       0.00007741
3
Lattice="3.1840664647 0.0 0.0 -1.5920332323 2.7574824458 0.0 0.0 0.0 40.0" Properties=species:S:1:pos:R:3:forces:R:3 source=crystal.fmt energy=-21.71673583984375 stress="9.88840838545002e-06 -1.0454866833375931e-10 -3.1681816892170644e-11 -1.0454866833375931e-10 9.889179636957124e-06 1.2340907462604633e-10 -3.1681816892170644e-11 1.2340907462604633e-10 7.330796591986655e-08" free_energy=-21.71673583984375 pbc="T T F"
Mo       0.00000003      -0.00000001       9.06355647       0.00000005      -0.00000001      -0.00000271
S        1.59203321       0.91916083      10.63459851      -0.00000004      -0.00000007      -0.00007019
S        1.59203322       0.91916082       7.49251399       0.00000002       0.00000004       0.00007292
3
Lattice="3.1840664647 0.0 0.0 -1.5920332323 2.7574824458 0.0 0.0 0.0 40.0" Properties=species:S:1:pos:R:3:forces:R:3 source=crystal.fmt energy=-21.71673583984375 stress="9.88834108284209e-06 -2.0062305983170603e-10 -3.6046509527265513e-11 -2.0062305983170603e-10 9.889138709695544e-06 -1.2505152469088898e-10 -3.6046509527265513e-11 -1.2505152469088898e-10 7.303530935587332e-08" free_energy=-21.71673583984375 pbc="T T F"
Mo       0.00000003      -0.00000001       9.06355645       0.00000015      -0.00000001      -0.00000256
S        1.59203321       0.91916083      10.63459829      -0.00000006       0.00000007      -0.00007011
S        1.59203322       0.91916082       7.49251422      -0.00000007      -0.00000002       0.00007274
3
Lattice="3.1840664647 0.0 0.0 -1.5920332323 2.7574824458 0.0 0.0 0.0 40.0" Properties=species:S:1:pos:R:3:forces:R:3 source=crystal.fmt energy=-21.71673583984375 stress="9.883660823106766e-06 3.893949399036423e-12 2.975962878903893e-11 3.893949399036423e-12 9.884298378892709e-06 5.959973486957537e-11 2.975962878903893e-11 5.959973486957537e-11 5.996936636165628e-08" free_energy=-21.71673583984375 pbc="T T F"
Mo       0.00000003      -0.00000001       9.06355644       0.00000009      -0.00000034      -0.00001123
S        1.59203321       0.91916083      10.63459805      -0.00000006       0.00000018      -0.00005257
S        1.59203322       0.91916082       7.49251449      -0.00000003       0.00000014       0.00006367
3
Lattice="3.1840664647 0.0 0.0 -1.5920332323 2.7574824458 0.0 0.0 0.0 40.0" Properties=species:S:1:pos:R:3:forces:R:3 source=crystal.fmt energy=-21.71673583984375 stress="9.883963684842456e-06 8.0696740956121e-11 -2.637444082576046e-12 8.0696740956121e-11 9.884243809210602e-06 -7.861845202628004e-11 -2.637444082576046e-12 -7.861845202628004e-11 5.965450355915891e-08" free_energy=-21.71673583984375 pbc="T T F"
Mo       0.00000003      -0.00000001       9.06355641       0.00000021       0.00000009      -0.00001159
S        1.59203321       0.91916083      10.63459774      -0.00000012       0.00000002      -0.00005227
S        1.59203322       0.91916082       7.49251482      -0.00000010      -0.00000007       0.00006381
3
Lattice="3.1840664647 0.0 0.0 -1.5920332323 2.7574824458 0.0 0.0 0.0 40.0" Properties=species:S:1:pos:R:3:forces:R:3 source=crystal.fmt energy=-21.71673583984375 stress="9.882480298983864e-06 -7.867542728412502e-11 -5.369978008269716e-13 -7.867542728412502e-11 9.882224730972666e-06 3.8903619908881026e-11 -5.369978008269716e-13 3.8903619908881026e-11 5.590020180079591e-08" free_energy=-21.71673583984375 pbc="T T F"
Mo       0.00000003      -0.00000002       9.06355636       0.00000005       0.00000040      -0.00000735
S        1.59203321       0.91916083      10.63459738       0.00000001      -0.00000018      -0.00005071
S        1.59203322       0.91916082       7.49251523      -0.00000005      -0.00000024       0.00005801
3
Lattice="3.1840664647 0.0 0.0 -1.5920332323 2.7574824458 0.0 0.0 0.0 40.0" Properties=species:S:1:pos:R:3:forces:R:3 source=crystal.fmt energy=-21.71673583984375 stress="9.874369425233454e-06 7.942203839039763e-11 -1.447064412740673e-10 7.942203839039763e-11 9.874050192593131e-06 3.0255387084565655e-10 -1.447064412740673e-10 3.0255387084565655e-10 3.735870990340118e-08" free_energy=-21.71673583984375 pbc="T T F"
Mo       0.00000003      -0.00000001       9.06355631       0.00000007      -0.00000002      -0.00000874
S        1.59203321       0.91916083      10.63459693       0.00000009      -0.00000018      -0.00003204
S        1.59203322       0.91916082       7.49251573      -0.00000013       0.00000005       0.00004077
3
Lattice="3.1840664647 0.0 0.0 -1.5920332323 2.7574824458 0.0 0.0 0.0 40.0" Properties=species:S:1:pos:R:3:forces:R:3 source=crystal.fmt energy=-21.71673583984375 stress="9.870132089417893e-06 -9.274533398218043e-12 -9.429123454252064e-11 -9.274533398218043e-12 9.869383575278334e-06 1.5094200889187448e-10 -9.429123454252064e-11 1.5094200889187448e-10 2.81758971709678e-08" free_energy=-21.71673583984375 pbc="T T F"
Mo       0.00000003      -0.00000001       9.06355623       0.00000012       0.00000005      -0.00000009
S        1.59203321       0.91916083      10.63459641      -0.00000004      -0.00000010      -0.00002758
S        1.59203322       0.91916082       7.49251632      -0.00000004      -0.00000004       0.00002772
3
Lattice="3.1840664647 0.0 0.0 -1.5920332323 2.7574824458 0.0 0.0 0.0 40.0" Properties=species:S:1:pos:R:3:forces:R:3 source=crystal.fmt energy=-21.71673583984375 stress="9.867889275483321e-06 -5.664644101011085e-11 -7.520559869300669e-11 -5.664644101011085e-11 9.867604603641666e-06 1.6125882573714279e-10 -7.520559869300669e-11 1.6125882573714279e-10 1.7358299686520695e-08" free_energy=-21.71673583984375 pbc="T T F"
Mo       0.00000003      -0.00000001       9.06355616       0.00000009       0.00000041       0.00000798
S        1.59203321       0.91916083      10.63459579      -0.00000003      -0.00000030      -0.00002106
S        1.59203322       0.91916082       7.49251701      -0.00000006      -0.00000017       0.00001314
3
Lattice="3.1840664647 0.0 0.0 -1.5920332323 2.7574824458 0.0 0.0 0.0 40.0" Properties=species:S:1:pos:R:3:forces:R:3 source=crystal.fmt energy=-21.716733932495117 stress="9.8617738331086e-06 6.349298170560402e-11 -1.4481322391235452e-11 6.349298170560402e-11 9.86212762654759e-06 3.2844044151048024e-10 -1.4481322391235452e-11 3.2844044151048024e-10 1.583512099223583e-09" free_energy=-21.716733932495117 pbc="T T F"
Mo       0.00000003      -0.00000001       9.06355613       0.00000010      -0.00000021       0.00001122
S        1.59203321       0.91916083      10.63459507      -0.00000006      -0.00000003      -0.00000726
S        1.59203322       0.91916082       7.49251777      -0.00000002       0.00000005      -0.00000390
3
Lattice="3.1840664647 0.0 0.0 -1.5920332323 2.7574824458 0.0 0.0 0.0 40.0" Properties=species:S:1:pos:R:3:forces:R:3 source=crystal.fmt energy=-21.71673583984375 stress="9.854521522356663e-06 4.04353911465094e-11 -1.180535530442839e-10 4.04353911465094e-11 9.855196367425378e-06 -4.0443336180029377e-11 -1.180535530442839e-10 -4.0443336180029377e-11 -1.0975972131177514e-08" free_energy=-21.71673583984375 pbc="T T F"
Mo       0.00000004      -0.00000001       9.06355620       0.00000016      -0.00000040      -0.00000550
S        1.59203321       0.91916083      10.63459429       0.00000003       0.00000022       0.00001341
S        1.59203322       0.91916082       7.49251848      -0.00000017       0.00000023      -0.00000789
3
Lattice="3.1840664647 0.0 0.0 -1.5920332323 2.7574824458 0.0 0.0 0.0 40.0" Properties=species:S:1:pos:R:3:forces:R:3 source=crystal.fmt energy=-21.71673583984375 stress="9.854601557890419e-06 -1.7634518845177638e-11 -9.456832539278537e-11 -1.7634518845177638e-11 9.854985364654567e-06 1.6216160358961673e-10 -9.456832539278537e-11 1.6216160358961673e-10 -1.071895550097679e-08" free_energy=-21.71673583984375 pbc="T T F"
Mo       0.00000004      -0.00000001       9.06355620       0.00000011      -0.00000023      -0.00000585
S        1.59203321       0.91916083      10.63459429       0.00000001      -0.00000005       0.00001346
S        1.59203322       0.91916082       7.49251848      -0.00000011       0.00000028      -0.00000764
3
Lattice="3.1840664647 0.0 0.0 -1.5920332323 2.7574824458 0.0 0.0 0.0 40.0" Properties=species:S:1:pos:R:3:forces:R:3 source=crystal.fmt energy=-21.71673583984375 stress="9.854918971541338e-06 -4.2923699317132247e-11 -9.191320447798912e-12 -4.2923699317132247e-11 9.855886673904024e-06 -2.8170811169903054e-11 -9.191320447798912e-12 -2.8170811169903054e-11 -1.0411707940249926e-08" free_energy=-21.71673583984375 pbc="T T F"
Mo       0.00000004      -0.00000001       9.06355619       0.00000014      -0.00000004       0.00000590
S        1.59203321       0.91916083      10.63459430      -0.00000007       0.00000014       0.00000719
S        1.59203322       0.91916082       7.49251847      -0.00000007      -0.00000014      -0.00001309
3
Lattice="3.1840664647 0.0 0.0 -1.5920332323 2.7574824458 0.0 0.0 0.0 40.0" Properties=species:S:1:pos:R:3:forces:R:3 source=crystal.fmt energy=-21.71673583984375 stress="9.855144526227377e-06 8.553602270922056e-11 4.3873238375624624e-11 8.553602270922056e-11 9.855831194727216e-06 1.1511827602284086e-10 4.3873238375624624e-11 1.1511827602284086e-10 -1.0337239508828588e-08" free_energy=-21.71673583984375 pbc="T T F"
Mo       0.00000004      -0.00000001       9.06355619       0.00000015      -0.00000044       0.00000597
S        1.59203321       0.91916083      10.63459432      -0.00000015       0.00000024       0.00000709
S        1.59203322       0.91916082       7.49251846      -0.00000000       0.00000006      -0.00001305
3
Lattice="3.1840664647 0.0 0.0 -1.5920332323 2.7574824458 0.0 0.0 0.0 40.0" Properties=species:S:1:pos:R:3:forces:R:3 source=crystal.fmt energy=-21.71673583984375 stress="9.854757081484422e-06 1.699562157675416e-10 1.5955231927322622e-11 1.699562157675416e-10 9.855534699454438e-06 -6.550843895114511e-11 1.5955231927322622e-11 -6.550843895114511e-11 -1.0436437491989636e-08" free_energy=-21.71673583984375 pbc="T T F"
Mo       0.00000004      -0.00000001       9.06355619       0.00000028      -0.00000041       0.00000607
S        1.59203321       0.91916083      10.63459434      -0.00000019       0.00000032       0.00000702
S        1.59203322       0.91916082       7.49251844      -0.00000008       0.00000003      -0.00001304
3
Lattice="3.1840664647 0.0 0.0 -1.5920332323 2.7574824458 0.0 0.0 0.0 40.0" Properties=species:S:1:pos:R:3:forces:R:3 source=crystal.fmt energy=-21.71673583984375 stress="9.854051313595846e-06 5.215805001443363e-13 -2.4295669642793172e-11 5.215805001443363e-13 9.854900781647302e-06 1.667419674555859e-10 -2.4295669642793172e-11 1.667419674555859e-10 -1.121423132133259e-08" free_energy=-21.71673583984375 pbc="T T F"
Mo       0.00000004      -0.00000001       9.06355620       0.00000010      -0.00000023      -0.00000586
S        1.59203321       0.91916083      10.63459436      -0.00000005       0.00000002       0.00001381
S        1.59203322       0.91916082       7.49251841      -0.00000003       0.00000012      -0.00000793
3
Lattice="3.1840664647 0.0 0.0 -1.5920332323 2.7574824458 0.0 0.0 0.0 40.0" Properties=species:S:1:pos:R:3:forces:R:3 source=crystal.fmt energy=-21.71673583984375 stress="9.8541304396349e-06 -1.5305122620656864e-12 -9.026224212504985e-11 -1.5305122620656864e-12 9.855030839389656e-06 2.2799803711670563e-11 -9.026224212504985e-11 2.2799803711670563e-11 -1.1013698397732696e-08" free_energy=-21.71673583984375 pbc="T T F"
Mo       0.00000004      -0.00000001       9.06355620       0.00000003      -0.00000046      -0.00000537
S        1.59203321       0.91916083      10.63459439       0.00000004       0.00000012       0.00001338
S        1.59203322       0.91916082       7.49251838      -0.00000005       0.00000043      -0.00000800
3
Lattice="3.1840664647 0.0 0.0 -1.5920332323 2.7574824458 0.0 0.0 0.0 40.0" Properties=species:S:1:pos:R:3:forces:R:3 source=crystal.fmt energy=-21.71673583984375 stress="9.854315976554062e-06 -6.109427547196233e-11 -8.59781065787324e-11 -6.109427547196233e-11 9.85509996098699e-06 1.50375337182318e-10 -8.59781065787324e-11 1.50375337182318e-10 -1.0924999571670924e-08" free_energy=-21.71673583984375 pbc="T T F"
Mo       0.00000004      -0.00000001       9.06355620       0.00000001      -0.00000052      -0.00000541
S        1.59203321       0.91916083      10.63459442       0.00000006       0.00000011       0.00001331
S        1.59203321       0.91916082       7.49251835      -0.00000005       0.00000037      -0.00000787
3
Lattice="3.1840664647 0.0 0.0 -1.5920332323 2.7574824458 0.0 0.0 0.0 40.0" Properties=species:S:1:pos:R:3:forces:R:3 source=crystal.fmt energy=-21.716733932495117 stress="9.860669706540648e-06 6.386666369373462e-13 -6.775075834554445e-13 6.386666369373462e-13 9.86017312243348e-06 1.3571350987451325e-10 -6.775075834554445e-13 1.3571350987451325e-10 -1.1380170139574375e-09" free_energy=-21.716733932495117 pbc="T T F"
Mo       0.00000004      -0.00000002       9.06355619       0.00000005      -0.00000007       0.00001343
S        1.59203321       0.91916083      10.63459447      -0.00000004       0.00000005      -0.00000542
S        1.59203321       0.91916082       7.49251831       0.00000001      -0.00000009      -0.00000808
3
Lattice="3.1840664647 0.0 0.0 -1.5920332323 2.7574824458 0.0 0.0 0.0 40.0" Properties=species:S:1:pos:R:3:forces:R:3 source=crystal.fmt energy=-21.716733932495117 stress="9.860284990281798e-06 1.848729780373759e-10 4.499937575341839e-11 1.848729780373759e-10 9.859695637715049e-06 1.2550718797577076e-10 4.499937575341839e-11 1.2550718797577076e-10 -1.551689776668752e-09" free_energy=-21.716733932495117 pbc="T T F"
Mo       0.00000004      -0.00000002       9.06355619       0.00000011       0.00000001       0.00001351
S        1.59203321       0.91916083      10.63459447      -0.00000011       0.00000001      -0.00000547
S        1.59203321       0.91916082       7.49251831      -0.00000002      -0.00000012      -0.00000796
3
Lattice="3.1840664647 0.0 0.0 -1.5920332323 2.7574824458 0.0 0.0 0.0 40.0" Properties=species:S:1:pos:R:3:forces:R:3 source=crystal.fmt energy=-21.716733932495117 stress="9.856646101980004e-06 2.1921245374478815e-10 -1.2391986742299466e-11 2.1921245374478815e-10 9.858116754912771e-06 5.278578615874885e-11 -1.2391986742299466e-11 5.278578615874885e-11 -4.830907229802506e-09" free_energy=-21.716733932495117 pbc="T T F"
Mo       0.00000004      -0.00000002       9.06355620       0.00000031      -0.00000045      -0.00000017
S        1.59203321       0.91916083      10.63459446      -0.00000019       0.00000018       0.00000471
S        1.59203321       0.91916082       7.49251831      -0.00000009       0.00000028      -0.00000450
