3
Lattice="3.1840664647 0.0 0.0 -1.5920332323 2.7574824458 0.0 0.0 0.0 40.0" Properties=species:S:1:pos:R:3:forces:R:3 source=crystal.fmt energy=-21.716733932495117 free_energy=-21.716733932495117 stress="9.856646101980004e-06 2.1921245374478815e-10 -1.2391986742299466e-11 2.1921245374478815e-10 9.858116754912771e-06 5.278578615874885e-11 -1.2391986742299466e-11 5.278578615874885e-11 -4.830907229802506e-09" pbc="T T F"
Mo       0.00000004      -0.00000002       9.06355620       0.00000031      -0.00000045      -0.00000017
S        1.59203321       0.91916083      10.63459446      -0.00000019       0.00000018       0.00000471
S        1.59203321       0.91916082       7.49251831      -0.00000009       0.00000028      -0.00000450
