8
Lattice="5.44370237 0.0 0.0 0.0 5.44370237 0.0 0.0 0.0 5.44370237" Properties=species:S:1:pos:R:3:spacegroup_kinds:I:1 spacegroup="F d -3 m" unit_cell=conventional occupancy="_JSON {\"0\": {\"Si\": 1}}" pbc="T T T"
Si       0.00000000       0.00000000       0.00000000        0
Si       1.36092559       1.36092559       1.36092559        0
Si       0.00000000       2.72185118       2.72185118        0
Si       4.08277678       1.36092559       4.08277678        0
Si       1.36092559       4.08277678       4.08277678        0
Si       4.08277678       4.08277678       1.36092559        0
Si       2.72185118       0.00000000       2.72185118        0
Si       2.72185118       2.72185118       0.00000000        0
